p edge 75 278
e 1 20
e 1 26
e 1 35
e 1 53
e 1 67
e 1 69
e 2 26
e 2 30
e 2 47
e 2 53
e 2 62
e 2 63
e 3 9
e 3 29
e 3 35
e 3 50
e 3 52
e 4 9
e 4 10
e 4 23
e 4 28
e 4 29
e 4 31
e 4 37
e 4 40
e 4 51
e 4 53
e 4 56
e 4 63
e 4 71
e 5 6
e 5 10
e 5 11
e 5 33
e 5 59
e 5 63
e 5 75
e 6 13
e 6 47
e 6 52
e 6 58
e 6 61
e 7 19
e 7 32
e 7 37
e 7 40
e 7 47
e 7 54
e 7 64
e 7 66
e 7 74
e 8 14
e 8 15
e 8 54
e 8 69
e 8 72
e 9 20
e 9 21
e 9 31
e 9 35
e 9 58
e 9 65
e 9 73
e 10 26
e 11 27
e 11 36
e 11 51
e 11 57
e 11 62
e 11 66
e 11 70
e 12 15
e 12 52
e 12 62
e 12 71
e 12 75
e 13 22
e 13 50
e 13 58
e 13 66
e 14 16
e 14 20
e 14 32
e 14 42
e 14 47
e 14 49
e 14 59
e 14 62
e 14 63
e 14 72
e 14 75
e 15 26
e 15 43
e 15 62
e 15 66
e 16 18
e 16 20
e 16 24
e 16 30
e 16 38
e 16 57
e 16 62
e 16 75
e 17 21
e 17 32
e 17 34
e 18 19
e 18 24
e 18 39
e 18 40
e 18 44
e 18 58
e 18 67
e 18 68
e 19 50
e 19 66
e 20 36
e 20 37
e 20 39
e 20 44
e 20 50
e 20 56
e 20 57
e 20 70
e 21 23
e 21 63
e 21 71
e 22 42
e 22 48
e 22 49
e 22 67
e 22 69
e 22 72
e 23 25
e 23 59
e 23 64
e 23 74
e 24 38
e 24 43
e 24 45
e 24 52
e 24 58
e 24 63
e 24 70
e 25 28
e 25 32
e 25 41
e 25 61
e 25 69
e 25 71
e 25 74
e 26 49
e 26 53
e 26 54
e 26 56
e 26 67
e 26 68
e 26 71
e 27 35
e 27 59
e 27 63
e 27 68
e 27 73
e 29 33
e 29 34
e 29 49
e 29 56
e 29 57
e 29 60
e 29 69
e 29 75
e 30 34
e 30 50
e 30 66
e 30 71
e 30 72
e 31 33
e 31 64
e 31 74
e 32 40
e 32 54
e 32 56
e 32 64
e 32 71
e 33 38
e 33 49
e 33 60
e 33 65
e 33 75
e 34 57
e 34 60
e 34 65
e 34 68
e 35 45
e 35 49
e 35 70
e 36 55
e 36 56
e 36 61
e 36 62
e 36 63
e 37 40
e 37 57
e 37 58
e 37 61
e 37 68
e 37 73
e 38 49
e 38 53
e 38 66
e 38 73
e 38 74
e 39 45
e 39 47
e 39 52
e 39 73
e 40 42
e 40 54
e 40 59
e 41 49
e 41 50
e 41 62
e 41 68
e 41 72
e 42 52
e 42 65
e 42 68
e 42 73
e 43 45
e 43 55
e 43 61
e 43 67
e 43 70
e 43 72
e 44 72
e 44 73
e 45 49
e 45 63
e 45 65
e 48 64
e 48 71
e 48 75
e 49 64
e 50 73
e 50 75
e 51 65
e 51 71
e 52 62
e 52 63
e 52 64
e 53 62
e 53 73
e 53 75
e 54 55
e 54 61
e 54 65
e 55 58
e 55 64
e 55 68
e 55 72
e 57 73
e 58 73
e 59 69
e 59 74
e 60 66
e 60 70
e 60 71
e 61 72
e 62 71
e 63 64
e 64 67
e 64 72
e 65 67
e 65 70
e 65 72
e 66 70
e 67 71
e 68 70
